CMPL model generation - running

CMPL version: 1.11.0
Authors: Thomas Schleiff, Mike Steglich
Distributed under the GPLv3 

create model instance ...
write model instance ...
CMPL model generation - finished

Solver - running


Welcome to IBM(R) ILOG(R) CPLEX(R) Interactive Optimizer 12.7.1.0
  with Simplex, Mixed Integer & Barrier Optimizers
5725-A06 5725-A29 5724-Y48 5724-Y49 5724-Y54 5724-Y55 5655-Y21
Copyright IBM Corp. 1988, 2017.  All Rights Reserved.

Type 'help' for a list of available commands.
Type 'help' followed by a command name for more
information on commands.

CPLEX> Specified objective sense: MINIMIZE
Selected objective  name:  line[1]
Selected RHS        name:  RHS
Selected bound      name:  BOUND
Problem '/tmp/cmpl.T23824.mps' read.
Read time = 0.07 sec. (10.12 ticks)
CPLEX> CPXPARAM_Read_APIEncoding                        "UTF-8"
Tried aggregator 3 times.
MIP Presolve eliminated 24061 rows and 37683 columns.
MIP Presolve modified 425 coefficients.
Aggregator did 721 substitutions.
Reduced MIP has 3140 rows, 4051 columns, and 11997 nonzeros.
Reduced MIP has 3841 binaries, 0 generals, 0 SOSs, and 0 indicators.
Presolve time = 0.08 sec. (50.05 ticks)
Found incumbent of value 655.502859 after 0.14 sec. (76.41 ticks)
Probing fixed 10 vars, tightened 0 bounds.
Probing time = 0.02 sec. (5.18 ticks)
Tried aggregator 1 time.
MIP Presolve eliminated 0 rows and 10 columns.
MIP Presolve modified 48 coefficients.
Reduced MIP has 3140 rows, 4041 columns, and 11977 nonzeros.
Reduced MIP has 4041 binaries, 0 generals, 0 SOSs, and 0 indicators.
Presolve time = 0.02 sec. (10.23 ticks)
Probing time = 0.01 sec. (2.84 ticks)
Clique table members: 7329.
MIP emphasis: balance optimality and feasibility.
MIP search method: dynamic search.
Parallel mode: none, using 1 thread.
Root relaxation solution time = 0.01 sec. (5.63 ticks)

        Nodes                                         Cuts/
   Node  Left     Objective  IInf  Best Integer    Best Bound    ItCnt     Gap

*     0+    0                          655.5029      -27.3429           104.17%
      0     0      102.1086    15      655.5029      102.1086      130   84.42%
*     0+    0                          116.6000      102.1086            12.43%
*     0+    0                          102.4514      102.1086             0.33%
*     0     0      integral     0      102.4057      Cuts: 21      136    0.00%
      0     0        cutoff            102.4057      102.4057      136    0.00%
Elapsed time = 0.25 sec. (123.72 ticks, tree = 0.01 MB, solutions = 4)

Clique cuts applied:  3
Cover cuts applied:  12
Gomory fractional cuts applied:  6

Root node processing (before b&c):
  Real time             =    0.25 sec. (125.77 ticks)
Sequential b&c:
  Real time             =    0.00 sec. (0.00 ticks)
                          ------------
Total (root+branch&cut) =    0.25 sec. (125.77 ticks)

Solution pool: 4 solutions saved.

MIP - Integer optimal solution:  Objective =  1.0240571600e+02
Solution time =    0.25 sec.  Iterations = 136  Nodes = 0
Deterministic time = 125.90 ticks  (498.97 ticks/sec)

CPLEX> Incumbent solution written to file '/tmp/cmpl.T23824.gsol'.
CPLEX> 
CMPL: Time used for model generation: 1 seconds
CMPL: Time used for solving the model: 2 seconds


Solution written to ASCII file: results/output_generated_conf_0.3/2015-11-02-5/fair-nonlinear.sol

Solver - finished
